c FILE /home/rafael/Documents/HappySet/MIHS/inputs/happygen/output/graph_d_regular_k7_p0.5_v50_20241127_082653.txt
c SOURCE This is a d-regular graph formed for the happy graph colouring problem.
c DESCRIPTION It was generated using the problem generator of Rhyd Lewis
c
c GRAPH STATS
c Seed                             = -1484312936
c Number of Nodes                  = 50
c Number of colours k              = 7
c Number of pre-assignments        = 25
c Degree of all vertices           = 6
c Density                          = 0.122449
c 
c The degrees of nodes 1 to 50, respectively, are as follows 
c [6, 6, 6, 6, 6, 6, 6, 6, 6, 6, 6, 6, 6, 6, 6, 6, 6, 6, 6, 6, 6, 6, 6, 6, 6, 6, 
c  6, 6, 6, 6, 6, 6, 6, 6, 6, 6, 6, 6, 6, 6, 6, 6, 6, 6, 6, 6, 6, 6, 6, 6] 
c  
p edge 50 150 7
e 1 2
e 1 4
e 1 10
e 1 21
e 1 32
e 1 37
e 2 6
e 2 23
e 2 25
e 2 28
e 2 38
e 3 22
e 3 28
e 3 29
e 3 38
e 3 41
e 3 43
e 4 13
e 4 15
e 4 18
e 4 40
e 4 47
e 5 7
e 5 8
e 5 15
e 5 29
e 5 42
e 5 50
e 6 9
e 6 14
e 6 27
e 6 30
e 6 50
e 7 9
e 7 10
e 7 12
e 7 20
e 7 29
e 8 26
e 8 27
e 8 30
e 8 33
e 8 37
e 9 10
e 9 15
e 9 19
e 9 29
e 10 22
e 10 32
e 10 47
e 11 21
e 11 25
e 11 30
e 11 37
e 11 41
e 11 43
e 12 13
e 12 28
e 12 36
e 12 46
e 12 48
e 13 23
e 13 31
e 13 39
e 13 49
e 14 30
e 14 37
e 14 39
e 14 42
e 14 44
e 15 19
e 15 33
e 15 41
e 16 25
e 16 28
e 16 37
e 16 43
e 16 45
e 16 47
e 17 24
e 17 25
e 17 31
e 17 39
e 17 43
e 17 46
e 18 21
e 18 23
e 18 33
e 18 35
e 18 39
e 19 20
e 19 34
e 19 45
e 19 50
e 20 21
e 20 33
e 20 36
e 20 46
e 21 39
e 21 48
e 22 34
e 22 38
e 22 49
e 22 50
e 23 24
e 23 25
e 23 48
e 24 28
e 24 35
e 24 45
e 24 49
e 25 38
e 26 27
e 26 35
e 26 38
e 26 44
e 26 45
e 27 30
e 27 36
e 27 44
e 28 31
e 29 34
e 29 36
e 30 31
e 31 40
e 31 48
e 32 35
e 32 36
e 32 41
e 32 48
e 33 34
e 33 35
e 34 42
e 34 46
e 35 40
e 36 44
e 37 50
e 38 40
e 39 41
e 40 45
e 40 47
e 41 46
e 42 43
e 42 46
e 42 49
e 43 47
e 44 48
e 44 49
e 45 49
e 47 50
n 4 1
n 7 7
n 8 3
n 9 7
n 10 7
n 13 1
n 14 6
n 18 1
n 21 1
n 23 1
n 24 1
n 27 3
n 28 1
n 31 1
n 34 2
n 35 1
n 36 3
n 38 5
n 41 2
n 43 6
n 45 1
n 46 2
n 48 1
n 49 1
n 50 4
